33D32945 STP File, STP Format Version 1.0

SECTION Comments
Name "cube_n11_d2_s45"
Problem "Euclidean Steiner Tree Problem"
Remark "Generated with STPGenerator. 2 dimensions."
END

SECTION Graph
Nodes 11
END

SECTION Coordinates
DD 0 0.6089239803 0.0684510521
DD 1 0.5965783874 0.8830592017
DD 2 0.0076694484 0.9101628568
DD 3 0.7197443544 0.7481080414
DD 4 0.2152077799 0.2788681999
DD 5 0.3929495487 0.2476127913
DD 6 0.5214306472 0.2908011355
DD 7 0.0775070079 0.6388154154
DD 8 0.6265101371 0.8390606664
DD 9 0.1431079023 0.7291413614
DD 10 0.1934557334 0.1297003627
END
